c ind 10 11 133 14 15 18 235 35 36 38 0
c ind 39 4 41 42 44 45 47 48 5 50 0
c ind 51 53 54 56 57 59 60 62 63 65 0
c ind 66 68 69 71 72 74 75 77 78 80 0
c ind 81 0
p cnf 236 708
-1 2 0
-1 227 0
-100 101 0
-100 102 0
-101 -18 36 0
-101 -36 18 0
-102 -18 39 0
-102 -39 18 0
-103 -18 42 0
-103 -42 18 0
-104 -18 45 0
-104 -45 18 0
-105 -18 48 0
-105 -48 18 0
-106 -18 51 0
-106 -51 18 0
-107 -18 54 0
-107 -54 18 0
-108 -18 57 0
-108 -57 18 0
-109 -18 60 0
-109 -60 18 0
-110 -18 63 0
-110 -63 18 0
-111 -18 66 0
-111 -66 18 0
-112 -18 69 0
-112 -69 18 0
-113 -18 72 0
-113 -72 18 0
-114 -18 75 0
-114 -75 18 0
-115 -18 78 0
-115 -78 18 0
-116 -18 81 0
-116 -81 18 0
-117 118 0
-117 148 0
-118 119 0
-118 147 0
-119 120 0
-119 146 0
-12 -13 0
-120 121 0
-120 145 0
-121 122 0
-121 144 0
-122 123 0
-122 143 0
-123 124 0
-123 142 0
-124 125 0
-124 141 0
-125 126 0
-125 140 0
-126 127 0
-126 139 0
-127 128 0
-127 138 0
-128 129 0
-128 137 0
-129 130 0
-129 136 0
-13 -14 15 0
-13 -15 14 0
-130 131 0
-130 135 0
-131 132 0
-131 134 0
-132 -133 35 0
-132 -35 133 0
-133 0
-134 -133 38 0
-134 -38 133 0
-135 -133 41 0
-135 -41 133 0
-136 -133 44 0
-136 -44 133 0
-137 -133 47 0
-137 -47 133 0
-138 -133 50 0
-138 -50 133 0
-139 -133 53 0
-139 -53 133 0
-140 -133 56 0
-140 -56 133 0
-141 -133 59 0
-141 -59 133 0
-142 -133 62 0
-142 -62 133 0
-143 -133 65 0
-143 -65 133 0
-144 -133 68 0
-144 -68 133 0
-145 -133 71 0
-145 -71 133 0
-146 -133 74 0
-146 -74 133 0
-147 -133 77 0
-147 -77 133 0
-148 -133 80 0
-148 -80 133 0
-149 150 0
-149 223 0
-150 151 0
-150 219 0
-151 152 0
-151 215 0
-152 153 0
-152 211 0
-153 154 0
-153 207 0
-154 155 0
-154 203 0
-155 156 0
-155 199 0
-156 157 0
-156 195 0
-157 158 0
-157 191 0
-158 159 0
-158 187 0
-159 160 0
-159 183 0
-16 -17 19 0
-16 17 82 0
-160 161 0
-160 179 0
-161 162 0
-161 175 0
-162 163 0
-162 171 0
-163 164 0
-163 167 0
-164 -165 35 0
-164 -35 165 0
-165 -166 -133 0
-165 166 133 0
-166 -36 -18 0
-166 36 18 0
-167 -168 38 0
-167 -38 168 0
-168 -169 -170 0
-168 169 170 0
-169 -39 -133 0
-169 39 133 0
-17 -14 18 0
-17 -18 14 0
-170 36 133 0
-171 -172 41 0
-171 -41 172 0
-172 -173 -174 0
-172 173 174 0
-173 -42 -133 0
-173 42 133 0
-174 170 0
-174 39 0
-175 -176 44 0
-175 -44 176 0
-176 -177 -178 0
-176 177 178 0
-177 -45 -133 0
-177 45 133 0
-178 174 0
-178 42 0
-179 -180 47 0
-179 -47 180 0
-180 -181 -182 0
-180 181 182 0
-181 -48 -133 0
-181 48 133 0
-182 178 0
-182 45 0
-183 -184 50 0
-183 -50 184 0
-184 -185 -186 0
-184 185 186 0
-185 -51 -133 0
-185 51 133 0
-186 182 0
-186 48 0
-187 -188 53 0
-187 -53 188 0
-188 -189 -190 0
-188 189 190 0
-189 -54 -133 0
-189 54 133 0
-19 20 0
-19 79 0
-190 186 0
-190 51 0
-191 -192 56 0
-191 -56 192 0
-192 -193 -194 0
-192 193 194 0
-193 -57 -133 0
-193 57 133 0
-194 190 0
-194 54 0
-195 -196 59 0
-195 -59 196 0
-196 -197 -198 0
-196 197 198 0
-197 -60 -133 0
-197 60 133 0
-198 194 0
-198 57 0
-199 -200 62 0
-199 -62 200 0
-2 3 0
-2 6 0
-20 21 0
-20 76 0
-200 -201 -202 0
-200 201 202 0
-201 -63 -133 0
-201 63 133 0
-202 198 0
-202 60 0
-203 -204 65 0
-203 -65 204 0
-204 -205 -206 0
-204 205 206 0
-205 -66 -133 0
-205 66 133 0
-206 202 0
-206 63 0
-207 -208 68 0
-207 -68 208 0
-208 -209 -210 0
-208 209 210 0
-209 -69 -133 0
-209 69 133 0
-21 22 0
-21 73 0
-210 206 0
-210 66 0
-211 -212 71 0
-211 -71 212 0
-212 -213 -214 0
-212 213 214 0
-213 -72 -133 0
-213 72 133 0
-214 210 0
-214 69 0
-215 -216 74 0
-215 -74 216 0
-216 -217 -218 0
-216 217 218 0
-217 -75 -133 0
-217 75 133 0
-218 214 0
-218 72 0
-219 -220 77 0
-219 -77 220 0
-22 23 0
-22 70 0
-220 -221 -222 0
-220 221 222 0
-221 -78 -133 0
-221 78 133 0
-222 218 0
-222 75 0
-223 -224 80 0
-223 -80 224 0
-224 -225 -226 0
-224 225 226 0
-225 -81 -133 0
-225 81 133 0
-226 222 0
-226 78 0
-227 -7 228 0
-227 7 236 0
-228 -17 229 0
-228 17 230 0
-229 -18 5 0
-229 -5 18 0
-23 24 0
-23 67 0
-230 -83 231 0
-230 83 236 0
-231 -86 232 0
-231 86 236 0
-232 -233 5 0
-232 -5 233 0
-233 -234 -133 0
-233 234 133 0
-234 -235 -18 0
-234 235 18 0
-236 -235 5 0
-236 -5 235 0
-24 25 0
-24 64 0
-25 26 0
-25 61 0
-26 27 0
-26 58 0
-27 28 0
-27 55 0
-28 29 0
-28 52 0
-29 30 0
-29 49 0
-3 -4 5 0
-3 -5 4 0
-30 31 0
-30 46 0
-31 32 0
-31 43 0
-32 33 0
-32 40 0
-33 34 0
-33 37 0
-34 -35 36 0
-34 -36 35 0
-37 -38 39 0
-37 -39 38 0
-40 -41 42 0
-40 -42 41 0
-43 -44 45 0
-43 -45 44 0
-46 -47 48 0
-46 -48 47 0
-49 -50 51 0
-49 -51 50 0
-52 -53 54 0
-52 -54 53 0
-55 -56 57 0
-55 -57 56 0
-58 -59 60 0
-58 -60 59 0
-6 -7 16 0
-6 7 19 0
-61 -62 63 0
-61 -63 62 0
-64 -65 66 0
-64 -66 65 0
-67 -68 69 0
-67 -69 68 0
-7 8 12 0
-70 -71 72 0
-70 -72 71 0
-73 -74 75 0
-73 -75 74 0
-76 -77 78 0
-76 -78 77 0
-79 -80 81 0
-79 -81 80 0
-8 -9 0
-82 -83 85 0
-82 83 19 0
-83 8 0
-83 84 0
-84 -10 18 0
-84 -18 10 0
-85 -86 117 0
-85 86 149 0
-86 116 0
-86 87 0
-87 115 0
-87 88 0
-88 114 0
-88 89 0
-89 113 0
-89 90 0
-9 -10 11 0
-9 -11 10 0
-90 112 0
-90 91 0
-91 111 0
-91 92 0
-92 110 0
-92 93 0
-93 109 0
-93 94 0
-94 108 0
-94 95 0
-95 107 0
-95 96 0
-96 106 0
-96 97 0
-97 105 0
-97 98 0
-98 104 0
-98 99 0
-99 100 0
-99 103 0
1 -2 -227 0
1 0
100 -101 -102 0
101 -36 -18 0
101 36 18 0
102 -39 -18 0
102 39 18 0
103 -42 -18 0
103 42 18 0
104 -45 -18 0
104 45 18 0
105 -48 -18 0
105 48 18 0
106 -51 -18 0
106 51 18 0
107 -54 -18 0
107 54 18 0
108 -57 -18 0
108 57 18 0
109 -60 -18 0
109 60 18 0
110 -63 -18 0
110 63 18 0
111 -66 -18 0
111 66 18 0
112 -69 -18 0
112 69 18 0
113 -72 -18 0
113 72 18 0
114 -75 -18 0
114 75 18 0
115 -78 -18 0
115 78 18 0
116 -81 -18 0
116 81 18 0
117 -118 -148 0
118 -119 -147 0
119 -120 -146 0
12 13 0
120 -121 -145 0
121 -122 -144 0
122 -123 -143 0
123 -124 -142 0
124 -125 -141 0
125 -126 -140 0
126 -127 -139 0
127 -128 -138 0
128 -129 -137 0
129 -130 -136 0
13 -14 -15 0
13 14 15 0
130 -131 -135 0
131 -132 -134 0
132 -35 -133 0
132 35 133 0
134 -38 -133 0
134 38 133 0
135 -41 -133 0
135 41 133 0
136 -44 -133 0
136 44 133 0
137 -47 -133 0
137 47 133 0
138 -50 -133 0
138 50 133 0
139 -53 -133 0
139 53 133 0
140 -56 -133 0
140 56 133 0
141 -59 -133 0
141 59 133 0
142 -62 -133 0
142 62 133 0
143 -65 -133 0
143 65 133 0
144 -68 -133 0
144 68 133 0
145 -71 -133 0
145 71 133 0
146 -74 -133 0
146 74 133 0
147 -77 -133 0
147 77 133 0
148 -80 -133 0
148 80 133 0
149 -150 -223 0
150 -151 -219 0
151 -152 -215 0
152 -153 -211 0
153 -154 -207 0
154 -155 -203 0
155 -156 -199 0
156 -157 -195 0
157 -158 -191 0
158 -159 -187 0
159 -160 -183 0
16 -17 -19 0
16 -19 -82 0
16 17 -82 0
160 -161 -179 0
161 -162 -175 0
162 -163 -171 0
163 -164 -167 0
164 -35 -165 0
164 35 165 0
165 -133 166 0
165 -166 133 0
166 -18 36 0
166 -36 18 0
167 -38 -168 0
167 38 168 0
168 -169 170 0
168 -170 169 0
169 -133 39 0
169 -39 133 0
17 -14 -18 0
17 14 18 0
170 -133 0
170 -36 0
171 -41 -172 0
171 41 172 0
172 -173 174 0
172 -174 173 0
173 -133 42 0
173 -42 133 0
174 -39 -170 0
175 -44 -176 0
175 44 176 0
176 -177 178 0
176 -178 177 0
177 -133 45 0
177 -45 133 0
178 -42 -174 0
179 -47 -180 0
179 47 180 0
18 0
180 -181 182 0
180 -182 181 0
181 -133 48 0
181 -48 133 0
182 -45 -178 0
183 -50 -184 0
183 50 184 0
184 -185 186 0
184 -186 185 0
185 -133 51 0
185 -51 133 0
186 -48 -182 0
187 -53 -188 0
187 53 188 0
188 -189 190 0
188 -190 189 0
189 -133 54 0
189 -54 133 0
19 -20 -79 0
190 -51 -186 0
191 -56 -192 0
191 56 192 0
192 -193 194 0
192 -194 193 0
193 -133 57 0
193 -57 133 0
194 -54 -190 0
195 -59 -196 0
195 59 196 0
196 -197 198 0
196 -198 197 0
197 -133 60 0
197 -60 133 0
198 -57 -194 0
199 -62 -200 0
199 62 200 0
2 -3 -6 0
20 -21 -76 0
200 -201 202 0
200 -202 201 0
201 -133 63 0
201 -63 133 0
202 -60 -198 0
203 -65 -204 0
203 65 204 0
204 -205 206 0
204 -206 205 0
205 -133 66 0
205 -66 133 0
206 -63 -202 0
207 -68 -208 0
207 68 208 0
208 -209 210 0
208 -210 209 0
209 -133 69 0
209 -69 133 0
21 -22 -73 0
210 -66 -206 0
211 -71 -212 0
211 71 212 0
212 -213 214 0
212 -214 213 0
213 -133 72 0
213 -72 133 0
214 -69 -210 0
215 -74 -216 0
215 74 216 0
216 -217 218 0
216 -218 217 0
217 -133 75 0
217 -75 133 0
218 -72 -214 0
219 -77 -220 0
219 77 220 0
22 -23 -70 0
220 -221 222 0
220 -222 221 0
221 -133 78 0
221 -78 133 0
222 -75 -218 0
223 -80 -224 0
223 80 224 0
224 -225 226 0
224 -226 225 0
225 -133 81 0
225 -81 133 0
226 -78 -222 0
227 -228 -236 0
227 -7 -228 0
227 7 -236 0
228 -17 -229 0
228 -229 -230 0
228 17 -230 0
229 -5 -18 0
229 5 18 0
23 -24 -67 0
230 -231 -236 0
230 -83 -231 0
230 83 -236 0
231 -232 -236 0
231 -86 -232 0
231 86 -236 0
232 -5 -233 0
232 5 233 0
233 -133 234 0
233 -234 133 0
234 -18 235 0
234 -235 18 0
236 -5 -235 0
236 5 235 0
24 -25 -64 0
25 -26 -61 0
26 -27 -58 0
27 -28 -55 0
28 -29 -52 0
29 -30 -49 0
3 -4 -5 0
3 4 5 0
30 -31 -46 0
31 -32 -43 0
32 -33 -40 0
33 -34 -37 0
34 -35 -36 0
34 35 36 0
37 -38 -39 0
37 38 39 0
40 -41 -42 0
40 41 42 0
43 -44 -45 0
43 44 45 0
46 -47 -48 0
46 47 48 0
49 -50 -51 0
49 50 51 0
52 -53 -54 0
52 53 54 0
55 -56 -57 0
55 56 57 0
58 -59 -60 0
58 59 60 0
6 -16 -19 0
6 -7 -16 0
6 7 -19 0
61 -62 -63 0
61 62 63 0
64 -65 -66 0
64 65 66 0
67 -68 -69 0
67 68 69 0
7 -12 0
7 -8 0
70 -71 -72 0
70 71 72 0
73 -74 -75 0
73 74 75 0
76 -77 -78 0
76 77 78 0
79 -80 -81 0
79 80 81 0
8 9 0
82 -83 -85 0
82 -85 -19 0
82 83 -19 0
83 -8 -84 0
84 -10 -18 0
84 10 18 0
85 -117 -149 0
85 -86 -117 0
85 86 -149 0
86 -87 -116 0
87 -88 -115 0
88 -89 -114 0
89 -90 -113 0
9 -10 -11 0
9 10 11 0
90 -91 -112 0
91 -92 -111 0
92 -93 -110 0
93 -94 -109 0
94 -95 -108 0
95 -96 -107 0
96 -97 -106 0
97 -98 -105 0
98 -99 -104 0
99 -100 -103 0
